--- Job 7_P_Medyan_Problem.gms Start 12/01/21 19:54:57 35.1.0 r82a9585 WEX-WEI x86 64bit/MS Windows
--- Applying:
    C:\GAMS\35\gmsprmNT.txt
--- GAMS Parameters defined
    Input "C:\Users\Semih\Desktop\GAMS CALISMA\hasan_gams\7_P_Medyan_Problem.gms"
    PageSize 0
    ScrDir "C:\Users\Semih\Desktop\GAMS CALISMA\hasan_gams\225a\"
    SysDir C:\GAMS\35\
    LogOption 3
    ErrMsg 1
    ErrorLog 99
    IDE 1
    LstTitleLeftAligned 1
Licensee: GAMS Community License for Mehmet Semih BabacanG210511|0002AO-GEN
          Yildiz Technical University                                CL1316
          C:\GAMS\35\gamslice.txt
          Mehmet Semih Babacan, l6918040@std.yildiz.edu.tr                 
          Community license for demonstration and instructional purposes only
GAMS 35.1.0   Copyright (C) 1987-2021 GAMS Development. All rights reserved
--- Starting compilation
--- 7_P_Medyan_Problem.gms(41) 3 Mb
--- Starting execution: elapsed 0:00:00.022
--- Generating MIP model pmedian
--- 7_P_Medyan_Problem.gms(40) 4 Mb
---   74 rows  73 columns  257 non-zeroes
---   72 discrete-columns
--- Executing CPLEX (Solvelink=2): elapsed 0:00:00.186

IBM ILOG CPLEX   35.1.0 r82a9585 Released Apr 29, 2021 WEI x86 64bit/MS Window

--- *** This solver runs with a community license. No commercial use.
--- GMO memory 0.52 Mb (peak 0.52 Mb)
--- Dictionary memory 0.00 Mb
--- Cplex 20.1.0.1 link memory 0.00 Mb (peak 0.01 Mb)
--- Starting Cplex

Version identifier: 20.1.0.1 | 2021-04-07 | 3a818710c
CPXPARAM_Advance                                 0
CPXPARAM_Threads                                 1
CPXPARAM_MIP_Display                             4
CPXPARAM_MIP_Tolerances_AbsMIPGap                0
Generic callback                                 0x50
Found incumbent of value 573.000000 after 0.02 sec. (0.01 ticks)
Tried aggregator 1 time.
MIP Presolve eliminated 0 rows and 1 columns.
Reduced MIP has 73 rows, 72 columns, and 200 nonzeros.
Reduced MIP has 72 binaries, 0 generals, 0 SOSs, and 0 indicators.
Presolve time = 0.02 sec. (0.14 ticks)
Probing time = 0.00 sec. (0.05 ticks)
Tried aggregator 1 time.
Detecting symmetries...
Reduced MIP has 73 rows, 72 columns, and 200 nonzeros.
Reduced MIP has 72 binaries, 0 generals, 0 SOSs, and 0 indicators.
Presolve time = 0.00 sec. (0.17 ticks)
Probing time = 0.00 sec. (0.05 ticks)
Clique table members: 72.
MIP emphasis: balance optimality and feasibility.
MIP search method: dynamic search.
Parallel mode: none, using 1 thread.
Tried aggregator 1 time.
No LP presolve or aggregator reductions.
Presolve time = 0.00 sec. (0.03 ticks)
Initializing dual steep norms . . .

Iteration log . . .
Iteration:     1   Dual objective     =             0.000000
Root relaxation solution time = 0.02 sec. (0.14 ticks)

        Nodes                                         Cuts/
   Node  Left     Objective  IInf  Best Integer    Best Bound    ItCnt     Gap

*     0+    0                          573.0000        0.0000           100.00%
Found incumbent of value 573.000000 after 0.06 sec. (0.67 ticks)
*     0     0      integral     0      287.0000      287.0000       24    0.00%
Elapsed time = 0.06 sec. (0.69 ticks, tree = 0.00 MB, solutions = 2)
Found incumbent of value 287.000000 after 0.06 sec. (0.69 ticks)

Root node processing (before b&c):
  Real time             =    0.08 sec. (0.69 ticks)
Sequential b&c:
  Real time             =    0.00 sec. (0.00 ticks)
                          ------------
Total (root+branch&cut) =    0.08 sec. (0.69 ticks)

--- MIP status (101): integer optimal solution.
--- Cplex Time: 0.08sec (det. 0.69 ticks)

--- Fixing integer variables and solving final LP...

Version identifier: 20.1.0.1 | 2021-04-07 | 3a818710c
CPXPARAM_Advance                                 2
CPXPARAM_Threads                                 1
CPXPARAM_MIP_Display                             4
CPXPARAM_MIP_Tolerances_AbsMIPGap                0
Tried aggregator 1 time.
LP Presolve eliminated 73 rows and 73 columns.
All rows and columns eliminated.
Presolve time = 0.00 sec. (0.03 ticks)

--- Fixed MIP status (1): optimal.
--- Cplex Time: 0.00sec (det. 0.05 ticks)


Proven optimal solution
MIP Solution:          287.000000    (24 iterations, 0 nodes)
Final Solve:           287.000000    (0 iterations)

Best possible:         287.000000
Absolute gap:            0.000000
Relative gap:            0.000000

--- Reading solution for model pmedian
--- Executing after solve: elapsed 0:00:00.664
--- 7_P_Medyan_Problem.gms(41) 4 Mb
*** Status: Normal completion
--- Job 7_P_Medyan_Problem.gms Stop 12/01/21 19:54:58 elapsed 0:00:00.666
